% seed = 0

mint = 29;
% maxt = 77;

nActs = 27;
dur = [0,2,3,2,6,3,4,5,4,6,1,2,3,3,6,5,2,2,4,2,2,1,1,1,3,4,0];

nSkills = 3;
sreq = [| 0,0,0,
	| 1,2,1,
	| 2,0,1,
	| 2,1,1,
	| 2,0,2,
	| 2,2,2,
	| 1,2,0,
	| 0,2,2,
	| 1,1,1,
	| 0,1,2,
	| 0,1,1,
	| 2,0,2,
	| 0,2,2,
	| 1,1,0,
	| 2,2,2,
	| 0,2,2,
	| 2,0,2,
	| 1,0,1,
	| 2,0,1,
	| 1,2,0,
	| 0,3,0,
	| 1,1,0,
	| 0,0,2,
	| 1,1,0,
	| 0,0,1,
	| 1,1,1,
	| 0,0,0, |];

% SumOfsreq = 81;

nResources = 10;
mastery = [| true,false,false,
	| false,true,false,
	| true,true,false,
	| false,false,true,
	| true,false,true,
	| false,false,true,
	| true,true,true,
	| true,true,false,
	| false,true,true,
	| false,true,true, |];

nPrecs = 39;
pred = [1,1,1,2,2,3,3,4,4,5,6,7,7,8,8,8,9,9,10,10,10,11,12,13,14,15,16,16,17,18,19,19,20,21,22,23,24,25,26];
succ = [2,3,4,5,8,5,7,5,6,9,9,9,10,9,11,12,13,15,13,14,16,13,13,19,17,19,18,20,21,23,21,24,22,26,25,26,26,27,27];

nUnrels = 164;
unpred = [2,2,2,2,2,2,2,2,2,2,2,2,2,3,3,3,3,3,4,4,4,4,4,4,4,4,4,4,4,4,4,5,5,5,5,5,5,5,5,5,5,5,5,5,5,6,6,6,6,6,6,6,6,6,6,6,6,6,7,7,7,8,8,8,8,8,8,8,8,8,9,9,9,9,9,9,9,9,9,9,9,10,10,10,11,11,11,11,11,11,11,11,11,11,12,12,12,12,12,12,12,12,12,13,13,13,13,13,13,13,13,13,14,14,14,14,14,14,14,14,14,15,15,15,15,15,15,15,16,16,16,16,17,17,17,17,17,17,17,18,18,18,18,18,18,19,19,19,19,20,20,20,20,21,21,21,21,22,22,22,23,23,24,25];
unsucc = [3,4,6,7,10,14,16,17,18,20,22,23,25,4,6,8,11,12,7,8,10,11,12,14,16,17,18,20,22,23,25,6,7,8,10,11,12,14,16,17,18,20,22,23,25,7,8,10,11,12,14,16,17,18,20,22,23,25,8,11,12,10,14,16,17,18,20,22,23,25,10,11,12,14,16,17,18,20,22,23,25,11,12,15,12,14,15,16,17,18,20,22,23,25,14,15,16,17,18,20,22,23,25,14,15,16,17,18,20,22,23,25,15,16,18,19,20,22,23,24,25,16,17,18,20,22,23,25,17,19,21,24,18,19,20,22,23,24,25,19,20,21,22,24,25,20,22,23,25,21,23,24,26,22,23,24,25,23,24,26,24,25,25,26];

USEFUL_RES = [{},
	{1,2,3,4,5,6,7,8,9,10},
	{1,3,4,5,6,7,8,9,10},
	{1,2,3,4,5,6,7,8,9,10},
	{1,3,4,5,6,7,8,9,10},
	{1,2,3,4,5,6,7,8,9,10},
	{1,2,3,5,7,8,9,10},
	{2,3,4,5,6,7,8,9,10},
	{1,2,3,4,5,6,7,8,9,10},
	{2,3,4,5,6,7,8,9,10},
	{2,3,4,5,6,7,8,9,10},
	{1,3,4,5,6,7,8,9,10},
	{2,3,4,5,6,7,8,9,10},
	{1,2,3,5,7,8,9,10},
	{1,2,3,4,5,6,7,8,9,10},
	{2,3,4,5,6,7,8,9,10},
	{1,3,4,5,6,7,8,9,10},
	{1,3,4,5,6,7,8,9,10},
	{1,3,4,5,6,7,8,9,10},
	{1,2,3,5,7,8,9,10},
	{2,3,7,8,9,10},
	{1,2,3,5,7,8,9,10},
	{4,5,6,7,9,10},
	{1,2,3,5,7,8,9,10},
	{4,5,6,7,9,10},
	{1,2,3,4,5,6,7,8,9,10},
	{}];

POTENTIAL_ACT = [{2,3,4,5,6,7,9,12,14,15,17,18,19,20,22,24,26},
	{2,4,6,7,8,9,10,11,13,14,15,16,20,21,22,24,26},
	{2,3,4,5,6,7,8,9,10,11,12,13,14,15,16,17,18,19,20,21,22,24,26},
	{2,3,4,5,6,8,9,10,11,12,13,15,16,17,18,19,23,25,26},
	{2,3,4,5,6,7,8,9,10,11,12,13,14,15,16,17,18,19,20,22,23,24,25,26},
	{2,3,4,5,6,8,9,10,11,12,13,15,16,17,18,19,23,25,26},
	{2,3,4,5,6,7,8,9,10,11,12,13,14,15,16,17,18,19,20,21,22,23,24,25,26},
	{2,3,4,5,6,7,8,9,10,11,12,13,14,15,16,17,18,19,20,21,22,24,26},
	{2,3,4,5,6,7,8,9,10,11,12,13,14,15,16,17,18,19,20,21,22,23,24,25,26},
	{2,3,4,5,6,7,8,9,10,11,12,13,14,15,16,17,18,19,20,21,22,23,24,25,26}];
